# Objective value = 2.5925191585897765e-02
err 2.5925191585897765e-02
s1 1.9132968721008513e+03
s2 1.7261912132390232e+03
s3 1.4106212132390235e+03
s4 1.4096212132390235e+03
s5 1.4086212132390235e+03
s6 1.4076212132390235e+03
info1 2.7589434113817225e+02
info2 2
info3 1
f1 1.9408423287254345e+02
f2 1.9308423287254345e+02
f3 1.9208423287254345e+02
f4 1.9108423287254345e+02
f5 1.9008423287254345e+02
f6 1
SYS 0
comm 0
GPS 2.2996455388843310e+02
